
Gurobi 11.0.2 (win64) logging started Sat Nov 23 21:01:06 2024

Set parameter LogFile to value ".\Experiments\Verification_16_eps0.0001\Logs\vit_12_1_6_12_i4_r1_c4.log"
Set parameter TimeLimit to value 43200
Gurobi Optimizer version 11.0.2 build v11.0.2rc0 (win64 - Windows 10.0 (19045.2))

CPU model: Intel(R) Core(TM) i7-10750H CPU @ 2.60GHz, instruction set [SSE2|AVX|AVX2]
Thread count: 6 physical cores, 12 logical processors, using up to 12 threads

Optimize a model with 3933 rows, 4269 columns and 14966 nonzeros
Model fingerprint: 0x854a695f
Model has 1150 quadratic constraints
Model has 210 general constraints
Variable types: 4119 continuous, 150 integer (150 binary)
Coefficient statistics:
  Matrix range     [8e-04, 2e+02]
  QMatrix range    [1e+00, 1e+00]
  QLMatrix range   [1e+00, 1e+00]
  Objective range  [1e+00, 1e+00]
  Bounds range     [1e-289, 7e+02]
  RHS range        [1e-04, 5e+02]
  QRHS range       [1e-06, 1e-06]
Presolve removed 3287 rows and 2606 columns
Presolve time: 0.03s
Presolved: 4819 rows, 1664 columns, 16412 nonzeros
Presolved model has 928 bilinear constraint(s)
Presolved model has 119 nonlinear constraint(s)

Solving non-convex MINLP

Variable types: 1648 continuous, 16 integer (16 binary)

Root relaxation: objective 8.530778e+01, 2040 iterations, 0.06 seconds (0.09 work units)

    Nodes    |    Current Node    |     Objective Bounds      |     Work
 Expl Unexpl |  Obj  Depth IntInf | Incumbent    BestBd   Gap | It/Node Time

     0     0   85.30778    0  771          -   85.30778      -     -    0s
     0     0   85.30778    0  772          -   85.30778      -     -    0s
     0     0   85.23011    0  742          -   85.23011      -     -    0s
     0     0   85.16092    0  745          -   85.16092      -     -    0s
     0     0   85.16032    0  745          -   85.16032      -     -    0s
     0     0   85.13513    0  740          -   85.13513      -     -    0s
     0     0   85.12044    0  740          -   85.12044      -     -    0s
     0     0   85.11437    0  740          -   85.11437      -     -    0s
     0     0   85.11300    0  740          -   85.11300      -     -    0s
     0     0   85.07211    0  740          -   85.07211      -     -    0s
     0     0   85.07197    0  741          -   85.07197      -     -    0s
     0     0   85.07194    0  741          -   85.07194      -     -    0s
     0     0   85.07194    0  741          -   85.07194      -     -    0s
     0     0   85.06730    0  740          -   85.06730      -     -    0s
     0     0   85.06713    0  740          -   85.06713      -     -    0s
     0     0   85.06665    0  735          -   85.06665      -     -    0s
     0     0   85.06660    0  735          -   85.06660      -     -    0s
     0     0   85.06605    0  738          -   85.06605      -     -    0s
     0     0   85.06605    0  738          -   85.06605      -     -    0s
     0     0   85.06605    0  737          -   85.06605      -     -    0s
     0     0   77.28239    0  707          -   77.28239      -     -    4s
     0     2   77.24251    0  707          -   77.24251      -     -    4s
    11     2 infeasible    6               -   10.16222      -  69.0    7s
  1209    64  -14.70443   22  703          -  -14.55516      -  65.3   10s
H 2987   281                     -15.7107271  -14.81254  5.72%  79.7   13s
  2989   282  -14.81254   23    0  -15.71073  -14.81254  5.72%  79.6   16s
  4408   232  -15.70307   43  490  -15.71073  -15.70132  0.06%  72.2   20s
  8721  1251  -15.70744   59  496  -15.71073  -15.70694  0.02%  53.3   25s
 12679  2042  -15.71017   70  485  -15.71073  -15.70790  0.02%  46.7   30s
 17966  3084  -15.70903   68  479  -15.71073  -15.70858  0.01%  42.2   35s
 21796  3905     cutoff   79       -15.71073  -15.70895  0.01%  39.9   40s

Explored 28273 nodes (1066623 simplex iterations) in 44.75 seconds (44.10 work units)
Thread count was 12 (of 12 available processors)

Solution count 1: -15.7107 

Optimal solution found (tolerance 1.00e-04)
Best objective -1.571072707992e+01, best bound -1.570937640657e+01, gap 0.0086%
